(declare-fun var0 () String)
(assert (str.in.re var0 (re.++ (re.union (re.* (str.to.re "hh")) (re.union (str.to.re "iii") (str.to.re "j"))) (re.++ (re.+ (re.* (str.to.re "ggg"))) (re.++ (re.union (re.+ (str.to.re "d")) (re.union (str.to.re "eee") (str.to.re "f"))) (re.++ (re.+ (re.* (str.to.re "cc"))) (re.++ (re.* (re.+ (str.to.re "bb"))) (re.++ (re.+ (re.+ (str.to.re "aa"))) (re.++ (re.+ (re.union (str.to.re "888") (str.to.re "999"))) (re.++ (re.* (re.union (str.to.re "6") (str.to.re "77"))) (re.++ (re.+ (re.* (str.to.re "5"))) (re.++ (re.+ (re.+ (str.to.re "4"))) (re.++ (re.* (re.* (str.to.re "3"))) (re.++ (re.* (re.* (str.to.re "22"))) (re.++ (re.+ (re.+ (str.to.re "1"))) (re.++ (re.union (re.+ (str.to.re "~~~")) (re.* (str.to.re "0"))) (re.++ (re.* (re.+ (str.to.re "}"))) (re.++ (re.* (re.union (str.to.re "{{{") (str.to.re "|"))) (re.++ (re.* (re.* (str.to.re "```"))) (re.++ (re.+ (re.* (str.to.re "_"))) (re.++ (re.+ (re.+ (str.to.re "^^^"))) (re.++ (re.* (re.* (str.to.re "]]]"))) (re.++ (re.* (re.union (str.to.re "[") (str.to.re "\\"))) (re.++ (re.* (re.union (str.to.re "??") (str.to.re "@"))) (re.++ (re.union (re.union (str.to.re "<<<") (str.to.re "===")) (re.+ (str.to.re ">"))) (re.++ (re.+ (re.union (str.to.re ":::") (str.to.re ";;"))) (re.++ (re.+ (re.+ (str.to.re "//"))) (re.++ (re.union (re.* (str.to.re "---")) (re.+ (str.to.re "..."))) (re.++ (re.union (re.union (str.to.re "**") (str.to.re "+++")) (re.+ (str.to.re ","))) (re.++ (re.* (re.union (str.to.re "((") (str.to.re ")"))) (re.++ (re.* (re.+ (str.to.re "'"))) (re.++ (re.union (re.+ (str.to.re "$$$")) (re.union (str.to.re "%") (str.to.re "&&"))) (re.++ (re.* (re.+ (str.to.re "##"))) (re.++ (re.+ (re.+ (str.to.re """"""""))) (re.++ (re.* (re.* (str.to.re "!!!"))) (re.++ (re.union (re.* (str.to.re "Y")) (re.* (str.to.re "ZZZ"))) (re.++ (re.union (re.union (str.to.re "VV") (str.to.re "WW")) (re.* (str.to.re "X"))) (re.++ (re.* (re.union (str.to.re "TTT") (str.to.re "U"))) (re.++ (re.+ (re.union (str.to.re "RR") (str.to.re "S"))) (re.++ (re.* (re.union (str.to.re "PPP") (str.to.re "Q"))) (re.++ (re.* (re.* (str.to.re "O"))) (re.++ (re.+ (re.union (str.to.re "MMM") (str.to.re "NNN"))) (re.++ (re.* (re.+ (str.to.re "LL"))) (re.++ (re.union (re.union (str.to.re "I") (str.to.re "J")) (re.+ (str.to.re "KKK"))) (re.++ (re.union (re.+ (str.to.re "G")) (re.+ (str.to.re "HHH"))) (re.++ (re.union (re.* (str.to.re "EE")) (re.+ (str.to.re "F"))) (re.++ (re.+ (re.union (str.to.re "CCC") (str.to.re "DD"))) (re.++ (re.* (re.* (str.to.re "B"))) (re.++ (re.* (re.union (str.to.re "zz") (str.to.re "A"))) (re.++ (re.* (re.* (str.to.re "y"))) (re.++ (re.* (re.+ (str.to.re "x"))) (re.++ (re.union (re.union (str.to.re "u") (str.to.re "vvv")) (re.* (str.to.re "ww"))) (re.++ (re.* (re.* (str.to.re "tt"))) (re.++ (re.union (re.* (str.to.re "rrr")) (re.+ (str.to.re "sss"))) (re.++ (re.union (re.union (str.to.re "nn") (str.to.re "o")) (re.union (str.to.re "p") (str.to.re "qq"))) (re.++ (re.+ (re.union (str.to.re "ll") (str.to.re "mmm"))) (re.++ (re.* (re.+ (str.to.re "k"))) (re.++ (re.+ (re.* (str.to.re "jj"))) (re.++ (re.* (re.union (str.to.re "hh") (str.to.re "ii"))) (re.++ (re.union (re.+ (str.to.re "f")) (re.+ (str.to.re "gg"))) (re.++ (re.+ (re.+ (str.to.re "e"))) (re.++ (re.+ (re.+ (str.to.re "dd"))) (re.++ (re.* (re.union (str.to.re "bb") (str.to.re "c"))) (re.++ (re.union (re.union (str.to.re "7") (str.to.re "88")) (re.union (str.to.re "999") (str.to.re "aa"))) (re.++ (re.union (re.* (str.to.re "555")) (re.+ (str.to.re "666"))) (re.++ (re.union (re.+ (str.to.re "33")) (re.* (str.to.re "4"))) (re.++ (re.* (re.+ (str.to.re "222"))) (re.* (re.union (str.to.re "00") (str.to.re "1"))))))))))))))))))))))))))))))))))))))))))))))))))))))))))))))))))))))
(assert (not (str.in.re var0 (re.++ (re.* (re.* (str.to.re "mm"))) (re.++ (re.+ (re.* (str.to.re "l"))) (re.++ (re.union (re.union (str.to.re "hhh") (str.to.re "ii")) (re.union (str.to.re "jj") (str.to.re "kkk"))) (re.++ (re.union (re.union (str.to.re "eee") (str.to.re "ff")) (re.+ (str.to.re "gg"))) (re.++ (re.* (re.* (str.to.re "ddd"))) (re.++ (re.+ (re.union (str.to.re "bbb") (str.to.re "ccc"))) (re.++ (re.union (re.union (str.to.re "777") (str.to.re "888")) (re.union (str.to.re "999") (str.to.re "aaa"))) (re.++ (re.+ (re.union (str.to.re "55") (str.to.re "6"))) (re.++ (re.union (re.+ (str.to.re "2")) (re.union (str.to.re "33") (str.to.re "4"))) (re.++ (re.+ (re.union (str.to.re "00") (str.to.re "1"))) (re.++ (re.union (re.union (str.to.re "{{{") (str.to.re "|")) (re.union (str.to.re "}}}") (str.to.re "~~~"))) (re.++ (re.* (re.+ (str.to.re "``"))) (re.++ (re.+ (re.+ (str.to.re "__"))) (re.++ (re.+ (re.union (str.to.re "]]]") (str.to.re "^"))) (re.++ (re.+ (re.+ (str.to.re "\\\\\\"))) (re.++ (re.* (re.+ (str.to.re "["))) (re.++ (re.union (re.* (str.to.re "???")) (re.+ (str.to.re "@"))) (re.++ (re.+ (re.* (str.to.re ">>>"))) (re.++ (re.union (re.union (str.to.re "::") (str.to.re ";;")) (re.union (str.to.re "<<<") (str.to.re "=="))) (re.++ (re.union (re.+ (str.to.re "..")) (re.* (str.to.re "///"))) (re.++ (re.* (re.union (str.to.re ",,") (str.to.re "---"))) (re.++ (re.* (re.* (str.to.re "+"))) (re.++ (re.* (re.union (str.to.re ")") (str.to.re "**"))) (re.++ (re.union (re.union (str.to.re "&") (str.to.re "''")) (re.+ (str.to.re "((("))) (re.++ (re.* (re.union (str.to.re "$$$") (str.to.re "%%"))) (re.++ (re.+ (re.* (str.to.re "###"))) (re.++ (re.union (re.* (str.to.re "!!")) (re.* (str.to.re """"""""))) (re.++ (re.+ (re.* (str.to.re "Z"))) (re.++ (re.+ (re.union (str.to.re "XX") (str.to.re "Y"))) (re.++ (re.* (re.union (str.to.re "V") (str.to.re "WW"))) (re.++ (re.* (re.+ (str.to.re "UU"))) (re.++ (re.+ (re.union (str.to.re "S") (str.to.re "TT"))) (re.++ (re.+ (re.* (str.to.re "RR"))) (re.++ (re.+ (re.union (str.to.re "PPP") (str.to.re "QQ"))) (re.++ (re.+ (re.+ (str.to.re "O"))) (re.++ (re.* (re.* (str.to.re "NN"))) (re.++ (re.union (re.+ (str.to.re "KK")) (re.union (str.to.re "LLL") (str.to.re "M"))) (re.++ (re.+ (re.+ (str.to.re "JJJ"))) (re.++ (re.* (re.+ (str.to.re "III"))) (re.++ (re.union (re.* (str.to.re "FF")) (re.union (str.to.re "GG") (str.to.re "H"))) (re.++ (re.union (re.+ (str.to.re "CC")) (re.union (str.to.re "DDD") (str.to.re "EE"))) (re.++ (re.+ (re.* (str.to.re "B"))) (re.++ (re.+ (re.+ (str.to.re "A"))) (re.++ (re.* (re.union (str.to.re "y") (str.to.re "z"))) (re.++ (re.union (re.+ (str.to.re "www")) (re.* (str.to.re "xxx"))) (re.++ (re.+ (re.+ (str.to.re "vvv"))) (re.++ (re.* (re.+ (str.to.re "uu"))) (re.++ (re.* (re.+ (str.to.re "t"))) (re.++ (re.* (re.* (str.to.re "sss"))) (re.++ (re.* (re.* (str.to.re "rr"))) (re.++ (re.* (re.* (str.to.re "q"))) (re.++ (re.+ (re.+ (str.to.re "pp"))) (re.++ (re.union (re.* (str.to.re "nn")) (re.* (str.to.re "o"))) (re.++ (re.union (re.union (str.to.re "jj") (str.to.re "kkk")) (re.union (str.to.re "l") (str.to.re "mm"))) (re.++ (re.union (re.+ (str.to.re "hhh")) (re.* (str.to.re "i"))) (re.++ (re.union (re.union (str.to.re "ee") (str.to.re "fff")) (re.+ (str.to.re "g"))) (re.++ (re.* (re.union (str.to.re "cc") (str.to.re "d"))) (re.++ (re.+ (re.* (str.to.re "bbb"))) (re.++ (re.+ (re.union (str.to.re "9") (str.to.re "aaa"))) (re.++ (re.* (re.union (str.to.re "77") (str.to.re "8"))) (re.++ (re.+ (re.+ (str.to.re "66"))) (re.++ (re.* (re.* (str.to.re "555"))) (re.++ (re.+ (re.union (str.to.re "33") (str.to.re "4"))) (re.++ (re.* (re.+ (str.to.re "222"))) (re.++ (re.+ (re.* (str.to.re "11"))) (re.* (re.* (str.to.re "000")))))))))))))))))))))))))))))))))))))))))))))))))))))))))))))))))))))))
(check-sat)